p cnf 7230 17
-2314 -3040 3525 0
3040 -3525 0
-2322 -3178 -3530 0
-2320 -3048 -3528 0
-2318 -3156 -3526 0
2322 -3531 0
2320 -3529 0
2318 -3527 0
3530 3531 0
3528 3529 0
3526 3527 0
3178 -3531 0
3048 -3529 0
3156 -3527 0
2330 -3533 0
3524 3525 0
-3524 -3525 0
